[1480, 1752, 1560, 1548, 1606, 1314, 1092, 1212, 1184, 1330, 1110, 852, 972, 1056, 880, 800, 690, 572, 512, 508, 424, 272, 212, 212, 182, 172, 166, 166, 148, 152, 144, 142, 142, 138, 136, 128, 128, 128, 120, 128, 122, 122, 120, 128, 128, 124, 122, 120, 122, 116, 122, 118, 118, 124, 122, 122, 124, 120, 122, 118, 120, 120, 120, 120, 120, 122, 120, 120, 118, 120, 118, 118, 118, 122, 120, 118, 118, 118, 120, 120, 118, 118, 120, 120, 120, 120, 118, 120, 120, 120, 116, 120, 116, 116, 120, 120, 120, 120, 120, 118, 118, 118, 118, 118, 122, 120, 120, 120, 120, 120, 118, 120, 120, 120, 118, 118, 118, 120, 120, 120, 120, 122, 118, 122, 120, 118, 120, 118, 122, 122, 118, 122, 122, 122, 120, 122, 122, 120, 118, 120, 120, 120, 124, 118, 118, 118, 118, 118, 118, 126, 126, 120, 120, 118, 118, 118, 116, 116, 120, 118, 120, 118, 118, 118, 118, 120, 124, 120, 120, 122, 120, 124, 124, 122, 122, 122, 120, 118, 120, 120, 120, 120, 120, 120, 118, 118, 118, 118, 124, 118, 124, 118, 118, 118, 118, 124, 120, 120, 120, 118]